SEED : 722305413250381872
RATIO : 50
NAME : ch130.opt.tour
COMMENT : Tour result for ch130.tsp (6124.0)
TYPE : TOUR
DIMENSION : 130
TOUR_SECTION
43
104
127
107
70
97
7
26
88
86
69
64
124
129
61
109
76
11
5
45
16
128
105
62
28
115
112
117
39
41
1
71
130
50
2
54
35
4
20
118
80
46
18
8
108
114
3
83
30
59
90
125
85
66
78
121
126
21
33
93
37
22
47
40
23
96
13
67
14
10
102
6
55
122
44
42
51
60
120
53
91
72
49
58
106
38
92
73
99
74
75
52
65
56
9
57
82
101
123
111
119
84
36
32
113
25
48
63
68
98
110
89
94
77
103
81
12
87
79
95
116
24
29
15
100
19
27
31
17
34
-1
EOF